************************************************************************
file with basedata            : mm11_.bas
initial value random generator: 447042032
************************************************************************
projects                      :  1
jobs (incl. supersource/sink ):  12
horizon                       :  80
RESOURCES
  - renewable                 :  2   R
  - nonrenewable              :  2   N
  - doubly constrained        :  0   D
************************************************************************
PROJECT INFORMATION:
pronr.  #jobs rel.date duedate tardcost  MPM-Time
    1     10      0       21        6       21
************************************************************************
PRECEDENCE RELATIONS:
jobnr.    #modes  #successors   successors
   0        1          3           1   2   3
   1        3          1           6
   2        3          2           4   5
   3        3          3           4   5  10
   4        3          2           6   9
   5        3          2           8   9
   6        3          1           7
   7        3          1           8
   8        3          1          11
   9        3          1          11
  10        3          1          11
  11        1          0        
************************************************************************
REQUESTS/DURATIONS:
jobnr. mode duration  R 1  R 2  R 3  R 4  E(W 1)  E(W 2)  E(W 3)
------------------------------------------------------------------------
  0      1     0       0    0    0    0     0       0       0
  1      1     5       3    0    5    0    15      25       0
  2      1     5       7    0    5    0    35      25       0
  3      1     5       4    0    0    4    20       0      20
  4      1     4       3    0    0    6    12       0      24
  5      1     2       6    0    0    7    12       0      14
  6      1     2      10    0    2    0    20       4       0
  7      1     5       1    0    0    4    10       0      20
  8      1     5       0    6    7    0    30      35       0
  9      1     5       7    0    0    8    35       0      40
 10      1     3       0    7    0   10    21       0      30
 11      1     0       0    0    0    0     0       0       0
************************************************************************
RESOURCEAVAILABILITIES:
  R 1  R 2  R 3
   25   28   47
************************************************************************
RESOURCE LIMITS:
jobnr.  l(R 1)  u(R 1)  l(R 2)  u(R 2)  l(R 3)  u(R 3)
------------------------------------------------------------------------
  0        0       0       0       0       0       0
  1        2       3       3       5       0       0
  2        4       7       3       5       0       0
  3        2       4       0       0       2       4
  4        2       3       0       0       3       6
  5        3       6       0       0       4       7
  6        5      10       1       2       0       0
  7        1       2       0       0       2       4
  8        3       6       4       7       0       0
  9        4       7       0       0       4       8
 10        4       7       0       0       5      10
 11        0       0       0       0       0       0
************************************************************************
SCENARIOS:
------------------------------------------------------------------------
RESOURCE k = 1
s = 1: (0, 18, 29, 20, 8, 16, 24, 13, 27, 42, 17, 0)
s = 2: (0, 11, 30, 17, 14, 15, 11, 10, 23, 60, 14, 0)
s = 3: (0, 18, 29, 15, 11, 13, 15, 17, 18, 47, 28, 0)
s = 4: (0, 15, 37, 20, 11, 16, 12, 13, 36, 45, 36, 0)
s = 5: (0, 9, 32, 24, 10, 18, 19, 12, 35, 30, 22, 0)
s = 6: (0, 10, 51, 12, 12, 11, 13, 9, 51, 40, 35, 0)
s = 7: (0, 16, 33, 14, 8, 16, 32, 7, 24, 23, 17, 0)
s = 8: (0, 16, 47, 21, 15, 15, 24, 7, 19, 59, 21, 0)
s = 9: (0, 13, 22, 23, 14, 14, 16, 11, 29, 40, 19, 0)
s = 10: (0, 11, 28, 29, 10, 11, 16, 11, 29, 59, 17, 0)
s = 11: (0, 17, 45, 18, 9, 16, 12, 11, 38, 30, 14, 0)
s = 12: (0, 16, 52, 25, 11, 17, 21, 14, 29, 26, 23, 0)
s = 13: (0, 23, 61, 30, 9, 14, 19, 10, 23, 22, 23, 0)
s = 14: (0, 16, 28, 22, 16, 11, 16, 9, 37, 26, 19, 0)
s = 15: (0, 12, 26, 14, 14, 13, 15, 15, 39, 39, 21, 0)
s = 16: (0, 15, 42, 26, 15, 11, 20, 10, 45, 31, 20, 0)
s = 17: (0, 12, 45, 13, 15, 21, 12, 10, 51, 52, 25, 0)
s = 18: (0, 15, 54, 27, 9, 14, 30, 8, 33, 40, 22, 0)
s = 19: (0, 24, 24, 24, 14, 19, 19, 11, 26, 36, 20, 0)
s = 20: (0, 13, 31, 13, 10, 14, 17, 13, 32, 39, 15, 0)
s = 21: (0, 15, 31, 14, 10, 7, 16, 12, 40, 27, 26, 0)
s = 22: (0, 14, 22, 16, 13, 17, 19, 8, 29, 20, 39, 0)
s = 23: (0, 14, 28, 15, 19, 14, 20, 14, 25, 30, 19, 0)
s = 24: (0, 11, 25, 21, 15, 21, 21, 8, 28, 42, 20, 0)
s = 25: (0, 14, 65, 19, 11, 17, 23, 12, 21, 26, 26, 0)
s = 26: (0, 13, 39, 14, 11, 10, 15, 9, 26, 28, 17, 0)
s = 27: (0, 10, 28, 16, 8, 16, 18, 16, 22, 36, 23, 0)
s = 28: (0, 12, 44, 24, 18, 14, 13, 7, 30, 36, 23, 0)
s = 29: (0, 17, 42, 21, 12, 13, 24, 6, 36, 32, 32, 0)
s = 30: (0, 25, 31, 31, 12, 7, 28, 7, 19, 41, 13, 0)
s = 31: (0, 15, 35, 14, 7, 15, 31, 9, 29, 33, 17, 0)
s = 32: (0, 18, 41, 28, 12, 8, 11, 8, 22, 21, 27, 0)
s = 33: (0, 11, 32, 25, 11, 14, 19, 8, 43, 28, 32, 0)
s = 34: (0, 18, 36, 14, 10, 15, 29, 10, 24, 32, 17, 0)
s = 35: (0, 23, 40, 27, 7, 9, 14, 16, 32, 55, 21, 0)
s = 36: (0, 23, 25, 25, 12, 10, 19, 11, 27, 24, 18, 0)
s = 37: (0, 18, 33, 18, 8, 14, 19, 14, 36, 33, 14, 0)
s = 38: (0, 10, 33, 24, 12, 17, 17, 7, 25, 24, 18, 0)
s = 39: (0, 17, 54, 25, 10, 12, 16, 7, 26, 24, 21, 0)
s = 40: (0, 12, 31, 18, 17, 9, 18, 10, 49, 35, 18, 0)
s = 41: (0, 12, 41, 16, 14, 14, 24, 9, 39, 48, 24, 0)
s = 42: (0, 18, 48, 12, 10, 20, 22, 11, 36, 35, 38, 0)
s = 43: (0, 20, 42, 16, 14, 10, 20, 10, 22, 35, 23, 0)
s = 44: (0, 13, 35, 16, 8, 14, 13, 11, 20, 25, 25, 0)
s = 45: (0, 25, 31, 24, 13, 17, 14, 8, 27, 29, 24, 0)
s = 46: (0, 11, 35, 21, 14, 16, 29, 8, 44, 51, 37, 0)
s = 47: (0, 14, 43, 15, 10, 7, 16, 7, 38, 38, 38, 0)
s = 48: (0, 11, 27, 23, 10, 8, 16, 7, 31, 35, 20, 0)
s = 49: (0, 18, 41, 19, 13, 19, 17, 16, 21, 40, 15, 0)
s = 50: (0, 17, 32, 17, 16, 9, 16, 12, 39, 27, 13, 0)
s = 51: (0, 20, 34, 19, 12, 14, 21, 12, 41, 37, 28, 0)
s = 52: (0, 14, 50, 19, 12, 14, 18, 6, 27, 29, 18, 0)
s = 53: (0, 19, 34, 26, 12, 8, 19, 21, 19, 24, 14, 0)
s = 54: (0, 12, 32, 17, 8, 9, 22, 15, 33, 31, 17, 0)
s = 55: (0, 12, 31, 17, 12, 11, 15, 12, 32, 30, 22, 0)
s = 56: (0, 13, 25, 24, 18, 11, 13, 7, 25, 26, 17, 0)
s = 57: (0, 15, 29, 16, 8, 15, 14, 11, 34, 28, 12, 0)
s = 58: (0, 14, 36, 23, 14, 12, 18, 15, 26, 25, 20, 0)
s = 59: (0, 23, 31, 32, 18, 10, 35, 12, 40, 29, 16, 0)
s = 60: (0, 11, 18, 20, 16, 11, 24, 6, 23, 35, 14, 0)
s = 61: (0, 15, 23, 21, 12, 7, 14, 13, 35, 38, 15, 0)
s = 62: (0, 24, 49, 12, 9, 15, 17, 9, 54, 34, 13, 0)
s = 63: (0, 23, 25, 32, 21, 13, 19, 13, 19, 24, 21, 0)
s = 64: (0, 14, 31, 16, 17, 9, 19, 10, 32, 48, 16, 0)
s = 65: (0, 15, 37, 19, 11, 10, 15, 9, 29, 45, 34, 0)
s = 66: (0, 17, 40, 21, 9, 14, 13, 10, 24, 34, 20, 0)
s = 67: (0, 24, 35, 30, 15, 10, 26, 8, 33, 29, 20, 0)
s = 68: (0, 19, 22, 24, 19, 11, 27, 12, 20, 24, 15, 0)
s = 69: (0, 14, 27, 12, 9, 10, 20, 14, 26, 30, 21, 0)
s = 70: (0, 19, 27, 20, 12, 10, 15, 14, 27, 21, 15, 0)
s = 71: (0, 16, 25, 18, 14, 9, 13, 12, 21, 43, 13, 0)
s = 72: (0, 13, 37, 22, 14, 13, 30, 7, 19, 33, 19, 0)
s = 73: (0, 11, 50, 19, 11, 11, 32, 14, 22, 34, 26, 0)
s = 74: (0, 21, 24, 15, 8, 11, 16, 9, 25, 54, 14, 0)
s = 75: (0, 12, 35, 25, 16, 11, 17, 6, 21, 27, 20, 0)
s = 76: (0, 16, 21, 18, 15, 8, 21, 8, 21, 29, 21, 0)
s = 77: (0, 24, 31, 33, 16, 20, 17, 10, 32, 59, 26, 0)
s = 78: (0, 11, 28, 19, 18, 13, 19, 11, 29, 30, 17, 0)
s = 79: (0, 10, 37, 12, 10, 15, 15, 12, 48, 25, 13, 0)
s = 80: (0, 20, 35, 28, 11, 7, 19, 10, 25, 21, 19, 0)
s = 81: (0, 12, 34, 29, 18, 8, 21, 8, 46, 38, 16, 0)
s = 82: (0, 15, 47, 17, 12, 15, 16, 14, 34, 27, 18, 0)
s = 83: (0, 12, 32, 36, 16, 12, 17, 15, 24, 50, 30, 0)
s = 84: (0, 11, 38, 13, 17, 11, 12, 8, 16, 43, 20, 0)
s = 85: (0, 12, 35, 14, 15, 11, 18, 6, 25, 48, 21, 0)
s = 86: (0, 20, 20, 15, 12, 14, 34, 10, 23, 28, 21, 0)
s = 87: (0, 11, 33, 20, 13, 12, 12, 10, 47, 25, 30, 0)
s = 88: (0, 20, 32, 25, 15, 15, 15, 8, 20, 28, 20, 0)
s = 89: (0, 19, 58, 13, 13, 11, 28, 8, 25, 53, 18, 0)
s = 90: (0, 16, 58, 23, 12, 10, 16, 8, 25, 48, 15, 0)
s = 91: (0, 14, 46, 16, 16, 10, 13, 8, 18, 36, 16, 0)
s = 92: (0, 16, 46, 18, 12, 8, 28, 11, 20, 29, 27, 0)
s = 93: (0, 20, 26, 19, 9, 16, 24, 9, 32, 40, 19, 0)
s = 94: (0, 19, 50, 16, 15, 12, 18, 7, 30, 48, 23, 0)
s = 95: (0, 14, 36, 26, 7, 13, 25, 10, 40, 28, 26, 0)
s = 96: (0, 11, 21, 28, 15, 10, 15, 8, 28, 24, 16, 0)
s = 97: (0, 15, 43, 12, 11, 25, 26, 6, 24, 30, 25, 0)
s = 98: (0, 24, 28, 25, 10, 11, 21, 12, 18, 43, 16, 0)
s = 99: (0, 20, 26, 16, 10, 15, 12, 15, 34, 25, 22, 0)
s = 100: (0, 12, 44, 28, 11, 13, 15, 14, 34, 41, 18, 0)
s = 101: (0, 11, 35, 14, 12, 11, 19, 9, 29, 31, 18, 0)
s = 102: (0, 20, 48, 17, 14, 14, 24, 9, 41, 27, 27, 0)
s = 103: (0, 15, 40, 12, 11, 11, 20, 7, 30, 38, 25, 0)
s = 104: (0, 12, 19, 25, 15, 15, 24, 10, 47, 36, 14, 0)
s = 105: (0, 15, 35, 25, 15, 14, 21, 10, 27, 47, 13, 0)
s = 106: (0, 17, 31, 20, 15, 10, 29, 11, 28, 25, 16, 0)
s = 107: (0, 12, 22, 12, 17, 12, 23, 9, 20, 39, 14, 0)
s = 108: (0, 15, 20, 12, 10, 13, 13, 9, 23, 52, 24, 0)
s = 109: (0, 12, 52, 24, 13, 13, 27, 11, 41, 30, 31, 0)
s = 110: (0, 13, 29, 15, 11, 10, 14, 8, 29, 35, 18, 0)
s = 111: (0, 12, 38, 24, 11, 15, 26, 11, 45, 26, 20, 0)
s = 112: (0, 9, 38, 15, 9, 15, 16, 9, 25, 40, 21, 0)
s = 113: (0, 13, 36, 22, 16, 8, 18, 9, 16, 27, 17, 0)
s = 114: (0, 19, 32, 22, 9, 12, 27, 6, 17, 27, 18, 0)
s = 115: (0, 13, 38, 27, 20, 20, 17, 10, 32, 26, 20, 0)
s = 116: (0, 24, 35, 23, 11, 17, 19, 13, 44, 28, 17, 0)
s = 117: (0, 13, 31, 14, 20, 16, 16, 7, 19, 37, 29, 0)
s = 118: (0, 13, 52, 20, 14, 14, 19, 13, 40, 43, 32, 0)
s = 119: (0, 12, 56, 16, 12, 16, 23, 12, 22, 28, 18, 0)
s = 120: (0, 23, 22, 20, 17, 16, 34, 11, 21, 64, 39, 0)
s = 121: (0, 17, 44, 15, 8, 8, 19, 15, 27, 41, 37, 0)
s = 122: (0, 12, 25, 23, 16, 7, 20, 11, 31, 34, 19, 0)
s = 123: (0, 19, 30, 24, 15, 10, 20, 14, 19, 25, 20, 0)
s = 124: (0, 16, 32, 19, 11, 14, 16, 15, 33, 35, 16, 0)
s = 125: (0, 20, 41, 13, 9, 12, 13, 6, 33, 41, 21, 0)
s = 126: (0, 13, 31, 24, 11, 8, 14, 11, 28, 28, 17, 0)
s = 127: (0, 18, 40, 25, 15, 9, 17, 7, 25, 39, 17, 0)
s = 128: (0, 18, 36, 33, 9, 21, 17, 11, 39, 43, 25, 0)
s = 129: (0, 12, 36, 27, 12, 10, 25, 11, 22, 35, 17, 0)
s = 130: (0, 21, 29, 23, 16, 11, 18, 11, 34, 33, 24, 0)
s = 131: (0, 16, 45, 11, 13, 13, 18, 15, 20, 38, 22, 0)
s = 132: (0, 20, 35, 28, 12, 14, 21, 8, 29, 43, 24, 0)
s = 133: (0, 13, 47, 14, 24, 14, 16, 8, 25, 38, 14, 0)
s = 134: (0, 16, 30, 33, 8, 18, 20, 11, 29, 23, 18, 0)
s = 135: (0, 19, 42, 19, 20, 18, 23, 13, 19, 33, 15, 0)
s = 136: (0, 11, 63, 12, 18, 8, 19, 9, 25, 45, 18, 0)
s = 137: (0, 17, 41, 20, 18, 16, 22, 19, 50, 60, 23, 0)
s = 138: (0, 15, 45, 14, 10, 11, 20, 17, 40, 42, 18, 0)
s = 139: (0, 10, 33, 16, 10, 9, 18, 13, 29, 49, 36, 0)
s = 140: (0, 14, 25, 13, 13, 8, 14, 7, 21, 21, 22, 0)
s = 141: (0, 19, 36, 14, 9, 10, 22, 9, 29, 27, 18, 0)
s = 142: (0, 16, 30, 20, 9, 12, 15, 14, 24, 41, 19, 0)
s = 143: (0, 12, 24, 23, 16, 18, 17, 8, 42, 24, 24, 0)
s = 144: (0, 17, 32, 18, 8, 12, 15, 13, 19, 45, 21, 0)
s = 145: (0, 18, 21, 19, 16, 14, 15, 12, 24, 30, 21, 0)
s = 146: (0, 10, 38, 12, 7, 9, 16, 9, 37, 36, 18, 0)
s = 147: (0, 14, 47, 21, 12, 8, 20, 7, 38, 35, 19, 0)
s = 148: (0, 19, 31, 22, 8, 11, 20, 7, 35, 24, 15, 0)
s = 149: (0, 18, 29, 20, 12, 13, 19, 11, 32, 35, 24, 0)
s = 150: (0, 10, 26, 18, 13, 12, 15, 12, 51, 43, 24, 0)
s = 151: (0, 14, 50, 12, 11, 8, 24, 8, 28, 43, 33, 0)
s = 152: (0, 16, 29, 25, 13, 20, 25, 7, 22, 31, 19, 0)
s = 153: (0, 20, 50, 30, 10, 12, 23, 11, 26, 26, 21, 0)
s = 154: (0, 17, 39, 20, 8, 13, 20, 8, 44, 27, 32, 0)
s = 155: (0, 11, 52, 21, 10, 15, 20, 7, 28, 42, 17, 0)
s = 156: (0, 11, 34, 15, 14, 8, 19, 10, 48, 34, 15, 0)
s = 157: (0, 11, 29, 25, 14, 20, 21, 11, 35, 37, 17, 0)
s = 158: (0, 21, 66, 25, 15, 14, 29, 14, 36, 30, 32, 0)
s = 159: (0, 16, 26, 12, 11, 12, 15, 13, 40, 32, 14, 0)
s = 160: (0, 19, 39, 24, 13, 11, 16, 8, 32, 48, 27, 0)
s = 161: (0, 15, 28, 12, 15, 17, 15, 11, 24, 22, 18, 0)
s = 162: (0, 16, 43, 13, 21, 19, 18, 7, 22, 22, 19, 0)
s = 163: (0, 10, 41, 14, 8, 12, 15, 15, 25, 36, 32, 0)
s = 164: (0, 16, 39, 28, 9, 13, 16, 13, 44, 21, 24, 0)
s = 165: (0, 14, 27, 20, 15, 13, 13, 6, 38, 24, 30, 0)
s = 166: (0, 25, 62, 18, 9, 13, 13, 11, 19, 28, 30, 0)
s = 167: (0, 11, 26, 14, 14, 9, 15, 13, 21, 38, 35, 0)
s = 168: (0, 17, 27, 25, 8, 13, 13, 10, 19, 22, 24, 0)
s = 169: (0, 14, 26, 25, 10, 14, 17, 16, 24, 28, 28, 0)
s = 170: (0, 12, 48, 27, 18, 12, 25, 11, 36, 32, 22, 0)
s = 171: (0, 12, 32, 13, 21, 13, 13, 9, 24, 27, 18, 0)
s = 172: (0, 9, 30, 36, 18, 11, 16, 12, 26, 41, 31, 0)
s = 173: (0, 15, 24, 17, 13, 17, 16, 9, 21, 51, 28, 0)
s = 174: (0, 11, 31, 16, 11, 12, 26, 15, 34, 56, 31, 0)
s = 175: (0, 15, 37, 12, 12, 14, 19, 8, 27, 41, 15, 0)
s = 176: (0, 14, 28, 16, 11, 12, 30, 7, 32, 30, 28, 0)
s = 177: (0, 27, 24, 18, 14, 17, 14, 12, 21, 20, 24, 0)
s = 178: (0, 11, 63, 26, 10, 15, 17, 11, 31, 32, 16, 0)
s = 179: (0, 20, 29, 24, 10, 14, 12, 9, 36, 27, 16, 0)
s = 180: (0, 11, 55, 15, 12, 10, 19, 18, 32, 65, 20, 0)
s = 181: (0, 15, 31, 18, 16, 16, 18, 7, 19, 49, 14, 0)
s = 182: (0, 18, 53, 14, 14, 8, 22, 10, 20, 42, 31, 0)
s = 183: (0, 14, 37, 15, 15, 10, 18, 11, 30, 54, 26, 0)
s = 184: (0, 16, 39, 18, 15, 13, 13, 10, 29, 43, 27, 0)
s = 185: (0, 20, 36, 26, 15, 9, 32, 9, 34, 45, 28, 0)
s = 186: (0, 11, 34, 20, 17, 12, 20, 11, 19, 24, 28, 0)
s = 187: (0, 14, 25, 18, 10, 14, 16, 8, 27, 45, 16, 0)
s = 188: (0, 17, 35, 16, 13, 7, 25, 6, 27, 33, 15, 0)
s = 189: (0, 16, 33, 29, 8, 11, 17, 10, 39, 46, 30, 0)
s = 190: (0, 18, 21, 33, 9, 12, 17, 12, 42, 26, 25, 0)
s = 191: (0, 19, 37, 14, 15, 11, 23, 11, 35, 31, 20, 0)
s = 192: (0, 9, 27, 22, 9, 9, 12, 13, 26, 26, 26, 0)
s = 193: (0, 18, 33, 17, 12, 17, 11, 12, 28, 46, 26, 0)
s = 194: (0, 22, 30, 17, 13, 8, 15, 11, 22, 55, 25, 0)
s = 195: (0, 20, 38, 16, 12, 13, 15, 7, 21, 22, 19, 0)
s = 196: (0, 19, 26, 17, 19, 8, 19, 9, 20, 53, 18, 0)
s = 197: (0, 18, 47, 13, 13, 17, 19, 9, 20, 25, 26, 0)
s = 198: (0, 21, 31, 20, 14, 14, 21, 11, 20, 29, 16, 0)
s = 199: (0, 22, 33, 18, 15, 12, 16, 8, 39, 30, 30, 0)
s = 200: (0, 12, 28, 22, 10, 12, 25, 12, 24, 22, 21, 0)
------------------------------------------------------------------------
RESOURCE k = 2
s = 1: (0, 30, 21, 0, 0, 0, 5, 0, 31, 0, 0, 0)
s = 2: (0, 18, 22, 0, 0, 0, 3, 0, 27, 0, 0, 0)
s = 3: (0, 30, 21, 0, 0, 0, 3, 0, 20, 0, 0, 0)
s = 4: (0, 25, 27, 0, 0, 0, 3, 0, 42, 0, 0, 0)
s = 5: (0, 14, 23, 0, 0, 0, 4, 0, 41, 0, 0, 0)
s = 6: (0, 17, 36, 0, 0, 0, 3, 0, 60, 0, 0, 0)
s = 7: (0, 27, 24, 0, 0, 0, 7, 0, 28, 0, 0, 0)
s = 8: (0, 27, 34, 0, 0, 0, 5, 0, 22, 0, 0, 0)
s = 9: (0, 22, 16, 0, 0, 0, 4, 0, 34, 0, 0, 0)
s = 10: (0, 18, 20, 0, 0, 0, 4, 0, 34, 0, 0, 0)
s = 11: (0, 27, 32, 0, 0, 0, 3, 0, 44, 0, 0, 0)
s = 12: (0, 27, 37, 0, 0, 0, 5, 0, 34, 0, 0, 0)
s = 13: (0, 38, 44, 0, 0, 0, 4, 0, 26, 0, 0, 0)
s = 14: (0, 26, 20, 0, 0, 0, 4, 0, 43, 0, 0, 0)
s = 15: (0, 19, 19, 0, 0, 0, 3, 0, 45, 0, 0, 0)
s = 16: (0, 25, 30, 0, 0, 0, 4, 0, 53, 0, 0, 0)
s = 17: (0, 20, 32, 0, 0, 0, 3, 0, 59, 0, 0, 0)
s = 18: (0, 25, 39, 0, 0, 0, 6, 0, 38, 0, 0, 0)
s = 19: (0, 40, 17, 0, 0, 0, 4, 0, 30, 0, 0, 0)
s = 20: (0, 21, 23, 0, 0, 0, 4, 0, 37, 0, 0, 0)
s = 21: (0, 25, 23, 0, 0, 0, 4, 0, 47, 0, 0, 0)
s = 22: (0, 23, 16, 0, 0, 0, 4, 0, 34, 0, 0, 0)
s = 23: (0, 23, 20, 0, 0, 0, 4, 0, 29, 0, 0, 0)
s = 24: (0, 18, 18, 0, 0, 0, 5, 0, 33, 0, 0, 0)
s = 25: (0, 23, 46, 0, 0, 0, 5, 0, 25, 0, 0, 0)
s = 26: (0, 21, 28, 0, 0, 0, 3, 0, 31, 0, 0, 0)
s = 27: (0, 16, 20, 0, 0, 0, 4, 0, 26, 0, 0, 0)
s = 28: (0, 19, 32, 0, 0, 0, 3, 0, 35, 0, 0, 0)
s = 29: (0, 29, 30, 0, 0, 0, 5, 0, 42, 0, 0, 0)
s = 30: (0, 42, 22, 0, 0, 0, 6, 0, 22, 0, 0, 0)
s = 31: (0, 24, 25, 0, 0, 0, 7, 0, 34, 0, 0, 0)
s = 32: (0, 30, 29, 0, 0, 0, 3, 0, 25, 0, 0, 0)
s = 33: (0, 18, 23, 0, 0, 0, 4, 0, 50, 0, 0, 0)
s = 34: (0, 30, 26, 0, 0, 0, 6, 0, 27, 0, 0, 0)
s = 35: (0, 38, 29, 0, 0, 0, 3, 0, 37, 0, 0, 0)
s = 36: (0, 38, 18, 0, 0, 0, 4, 0, 31, 0, 0, 0)
s = 37: (0, 30, 24, 0, 0, 0, 4, 0, 42, 0, 0, 0)
s = 38: (0, 16, 24, 0, 0, 0, 4, 0, 29, 0, 0, 0)
s = 39: (0, 27, 39, 0, 0, 0, 4, 0, 30, 0, 0, 0)
s = 40: (0, 20, 22, 0, 0, 0, 4, 0, 58, 0, 0, 0)
s = 41: (0, 20, 30, 0, 0, 0, 5, 0, 46, 0, 0, 0)
s = 42: (0, 29, 35, 0, 0, 0, 5, 0, 42, 0, 0, 0)
s = 43: (0, 34, 30, 0, 0, 0, 4, 0, 26, 0, 0, 0)
s = 44: (0, 22, 25, 0, 0, 0, 3, 0, 23, 0, 0, 0)
s = 45: (0, 42, 22, 0, 0, 0, 3, 0, 32, 0, 0, 0)
s = 46: (0, 17, 25, 0, 0, 0, 6, 0, 51, 0, 0, 0)
s = 47: (0, 22, 31, 0, 0, 0, 4, 0, 44, 0, 0, 0)
s = 48: (0, 18, 20, 0, 0, 0, 4, 0, 37, 0, 0, 0)
s = 49: (0, 30, 30, 0, 0, 0, 4, 0, 24, 0, 0, 0)
s = 50: (0, 28, 23, 0, 0, 0, 4, 0, 45, 0, 0, 0)
s = 51: (0, 34, 24, 0, 0, 0, 5, 0, 48, 0, 0, 0)
s = 52: (0, 24, 36, 0, 0, 0, 4, 0, 32, 0, 0, 0)
s = 53: (0, 31, 24, 0, 0, 0, 4, 0, 23, 0, 0, 0)
s = 54: (0, 20, 23, 0, 0, 0, 5, 0, 38, 0, 0, 0)
s = 55: (0, 19, 22, 0, 0, 0, 3, 0, 37, 0, 0, 0)
s = 56: (0, 22, 18, 0, 0, 0, 3, 0, 29, 0, 0, 0)
s = 57: (0, 25, 21, 0, 0, 0, 3, 0, 39, 0, 0, 0)
s = 58: (0, 23, 26, 0, 0, 0, 4, 0, 31, 0, 0, 0)
s = 59: (0, 38, 23, 0, 0, 0, 7, 0, 47, 0, 0, 0)
s = 60: (0, 18, 13, 0, 0, 0, 5, 0, 27, 0, 0, 0)
s = 61: (0, 25, 17, 0, 0, 0, 3, 0, 41, 0, 0, 0)
s = 62: (0, 40, 35, 0, 0, 0, 4, 0, 63, 0, 0, 0)
s = 63: (0, 39, 18, 0, 0, 0, 4, 0, 22, 0, 0, 0)
s = 64: (0, 23, 22, 0, 0, 0, 4, 0, 37, 0, 0, 0)
s = 65: (0, 25, 27, 0, 0, 0, 3, 0, 34, 0, 0, 0)
s = 66: (0, 28, 29, 0, 0, 0, 3, 0, 28, 0, 0, 0)
s = 67: (0, 39, 25, 0, 0, 0, 6, 0, 39, 0, 0, 0)
s = 68: (0, 31, 16, 0, 0, 0, 6, 0, 23, 0, 0, 0)
s = 69: (0, 24, 19, 0, 0, 0, 4, 0, 31, 0, 0, 0)
s = 70: (0, 31, 19, 0, 0, 0, 3, 0, 32, 0, 0, 0)
s = 71: (0, 27, 18, 0, 0, 0, 3, 0, 24, 0, 0, 0)
s = 72: (0, 21, 26, 0, 0, 0, 6, 0, 22, 0, 0, 0)
s = 73: (0, 18, 36, 0, 0, 0, 7, 0, 26, 0, 0, 0)
s = 74: (0, 35, 17, 0, 0, 0, 4, 0, 29, 0, 0, 0)
s = 75: (0, 19, 25, 0, 0, 0, 4, 0, 24, 0, 0, 0)
s = 76: (0, 26, 15, 0, 0, 0, 5, 0, 25, 0, 0, 0)
s = 77: (0, 40, 22, 0, 0, 0, 4, 0, 38, 0, 0, 0)
s = 78: (0, 18, 20, 0, 0, 0, 4, 0, 33, 0, 0, 0)
s = 79: (0, 16, 27, 0, 0, 0, 3, 0, 56, 0, 0, 0)
s = 80: (0, 32, 25, 0, 0, 0, 4, 0, 29, 0, 0, 0)
s = 81: (0, 20, 24, 0, 0, 0, 5, 0, 53, 0, 0, 0)
s = 82: (0, 25, 34, 0, 0, 0, 4, 0, 40, 0, 0, 0)
s = 83: (0, 20, 23, 0, 0, 0, 4, 0, 28, 0, 0, 0)
s = 84: (0, 19, 27, 0, 0, 0, 3, 0, 19, 0, 0, 0)
s = 85: (0, 20, 25, 0, 0, 0, 4, 0, 29, 0, 0, 0)
s = 86: (0, 33, 14, 0, 0, 0, 7, 0, 26, 0, 0, 0)
s = 87: (0, 18, 24, 0, 0, 0, 3, 0, 54, 0, 0, 0)
s = 88: (0, 32, 23, 0, 0, 0, 3, 0, 23, 0, 0, 0)
s = 89: (0, 31, 42, 0, 0, 0, 6, 0, 29, 0, 0, 0)
s = 90: (0, 27, 42, 0, 0, 0, 4, 0, 29, 0, 0, 0)
s = 91: (0, 22, 33, 0, 0, 0, 3, 0, 21, 0, 0, 0)
s = 92: (0, 26, 33, 0, 0, 0, 6, 0, 24, 0, 0, 0)
s = 93: (0, 34, 18, 0, 0, 0, 5, 0, 37, 0, 0, 0)
s = 94: (0, 32, 36, 0, 0, 0, 4, 0, 34, 0, 0, 0)
s = 95: (0, 24, 26, 0, 0, 0, 5, 0, 47, 0, 0, 0)
s = 96: (0, 18, 15, 0, 0, 0, 3, 0, 32, 0, 0, 0)
s = 97: (0, 25, 31, 0, 0, 0, 6, 0, 28, 0, 0, 0)
s = 98: (0, 40, 20, 0, 0, 0, 5, 0, 21, 0, 0, 0)
s = 99: (0, 34, 19, 0, 0, 0, 3, 0, 40, 0, 0, 0)
s = 100: (0, 20, 32, 0, 0, 0, 3, 0, 39, 0, 0, 0)
s = 101: (0, 18, 25, 0, 0, 0, 4, 0, 33, 0, 0, 0)
s = 102: (0, 33, 34, 0, 0, 0, 5, 0, 48, 0, 0, 0)
s = 103: (0, 24, 29, 0, 0, 0, 4, 0, 35, 0, 0, 0)
s = 104: (0, 20, 14, 0, 0, 0, 5, 0, 55, 0, 0, 0)
s = 105: (0, 25, 25, 0, 0, 0, 5, 0, 31, 0, 0, 0)
s = 106: (0, 27, 22, 0, 0, 0, 6, 0, 33, 0, 0, 0)
s = 107: (0, 20, 16, 0, 0, 0, 5, 0, 23, 0, 0, 0)
s = 108: (0, 24, 15, 0, 0, 0, 3, 0, 27, 0, 0, 0)
s = 109: (0, 19, 37, 0, 0, 0, 6, 0, 48, 0, 0, 0)
s = 110: (0, 22, 21, 0, 0, 0, 3, 0, 33, 0, 0, 0)
s = 111: (0, 19, 27, 0, 0, 0, 6, 0, 52, 0, 0, 0)
s = 112: (0, 14, 27, 0, 0, 0, 4, 0, 30, 0, 0, 0)
s = 113: (0, 21, 26, 0, 0, 0, 4, 0, 19, 0, 0, 0)
s = 114: (0, 31, 23, 0, 0, 0, 6, 0, 20, 0, 0, 0)
s = 115: (0, 22, 27, 0, 0, 0, 4, 0, 37, 0, 0, 0)
s = 116: (0, 39, 25, 0, 0, 0, 4, 0, 51, 0, 0, 0)
s = 117: (0, 22, 22, 0, 0, 0, 4, 0, 23, 0, 0, 0)
s = 118: (0, 22, 37, 0, 0, 0, 4, 0, 47, 0, 0, 0)
s = 119: (0, 20, 40, 0, 0, 0, 5, 0, 26, 0, 0, 0)
s = 120: (0, 38, 16, 0, 0, 0, 7, 0, 25, 0, 0, 0)
s = 121: (0, 28, 32, 0, 0, 0, 4, 0, 32, 0, 0, 0)
s = 122: (0, 20, 18, 0, 0, 0, 4, 0, 37, 0, 0, 0)
s = 123: (0, 31, 22, 0, 0, 0, 4, 0, 22, 0, 0, 0)
s = 124: (0, 27, 23, 0, 0, 0, 4, 0, 38, 0, 0, 0)
s = 125: (0, 33, 29, 0, 0, 0, 3, 0, 39, 0, 0, 0)
s = 126: (0, 21, 22, 0, 0, 0, 3, 0, 33, 0, 0, 0)
s = 127: (0, 29, 29, 0, 0, 0, 4, 0, 29, 0, 0, 0)
s = 128: (0, 29, 26, 0, 0, 0, 4, 0, 46, 0, 0, 0)
s = 129: (0, 20, 26, 0, 0, 0, 5, 0, 26, 0, 0, 0)
s = 130: (0, 35, 21, 0, 0, 0, 4, 0, 40, 0, 0, 0)
s = 131: (0, 26, 32, 0, 0, 0, 4, 0, 23, 0, 0, 0)
s = 132: (0, 34, 25, 0, 0, 0, 5, 0, 34, 0, 0, 0)
s = 133: (0, 21, 34, 0, 0, 0, 4, 0, 29, 0, 0, 0)
s = 134: (0, 26, 22, 0, 0, 0, 4, 0, 34, 0, 0, 0)
s = 135: (0, 31, 30, 0, 0, 0, 5, 0, 22, 0, 0, 0)
s = 136: (0, 18, 45, 0, 0, 0, 4, 0, 29, 0, 0, 0)
s = 137: (0, 28, 30, 0, 0, 0, 5, 0, 58, 0, 0, 0)
s = 138: (0, 24, 32, 0, 0, 0, 4, 0, 47, 0, 0, 0)
s = 139: (0, 17, 24, 0, 0, 0, 4, 0, 34, 0, 0, 0)
s = 140: (0, 22, 18, 0, 0, 0, 3, 0, 24, 0, 0, 0)
s = 141: (0, 31, 26, 0, 0, 0, 5, 0, 34, 0, 0, 0)
s = 142: (0, 26, 22, 0, 0, 0, 3, 0, 28, 0, 0, 0)
s = 143: (0, 20, 17, 0, 0, 0, 4, 0, 49, 0, 0, 0)
s = 144: (0, 29, 23, 0, 0, 0, 3, 0, 22, 0, 0, 0)
s = 145: (0, 29, 15, 0, 0, 0, 3, 0, 28, 0, 0, 0)
s = 146: (0, 16, 28, 0, 0, 0, 4, 0, 43, 0, 0, 0)
s = 147: (0, 22, 34, 0, 0, 0, 4, 0, 44, 0, 0, 0)
s = 148: (0, 31, 22, 0, 0, 0, 4, 0, 41, 0, 0, 0)
s = 149: (0, 29, 21, 0, 0, 0, 4, 0, 37, 0, 0, 0)
s = 150: (0, 16, 19, 0, 0, 0, 3, 0, 60, 0, 0, 0)
s = 151: (0, 23, 36, 0, 0, 0, 5, 0, 33, 0, 0, 0)
s = 152: (0, 26, 21, 0, 0, 0, 5, 0, 26, 0, 0, 0)
s = 153: (0, 33, 36, 0, 0, 0, 5, 0, 30, 0, 0, 0)
s = 154: (0, 27, 28, 0, 0, 0, 4, 0, 51, 0, 0, 0)
s = 155: (0, 18, 37, 0, 0, 0, 4, 0, 33, 0, 0, 0)
s = 156: (0, 18, 25, 0, 0, 0, 4, 0, 56, 0, 0, 0)
s = 157: (0, 19, 21, 0, 0, 0, 5, 0, 41, 0, 0, 0)
s = 158: (0, 34, 47, 0, 0, 0, 6, 0, 42, 0, 0, 0)
s = 159: (0, 26, 19, 0, 0, 0, 3, 0, 46, 0, 0, 0)
s = 160: (0, 32, 28, 0, 0, 0, 4, 0, 38, 0, 0, 0)
s = 161: (0, 24, 20, 0, 0, 0, 3, 0, 28, 0, 0, 0)
s = 162: (0, 26, 31, 0, 0, 0, 4, 0, 26, 0, 0, 0)
s = 163: (0, 17, 29, 0, 0, 0, 3, 0, 29, 0, 0, 0)
s = 164: (0, 27, 28, 0, 0, 0, 4, 0, 51, 0, 0, 0)
s = 165: (0, 22, 20, 0, 0, 0, 3, 0, 45, 0, 0, 0)
s = 166: (0, 41, 45, 0, 0, 0, 3, 0, 22, 0, 0, 0)
s = 167: (0, 18, 18, 0, 0, 0, 3, 0, 24, 0, 0, 0)
s = 168: (0, 28, 20, 0, 0, 0, 3, 0, 22, 0, 0, 0)
s = 169: (0, 23, 19, 0, 0, 0, 4, 0, 28, 0, 0, 0)
s = 170: (0, 20, 35, 0, 0, 0, 5, 0, 42, 0, 0, 0)
s = 171: (0, 19, 23, 0, 0, 0, 3, 0, 28, 0, 0, 0)
s = 172: (0, 14, 21, 0, 0, 0, 4, 0, 30, 0, 0, 0)
s = 173: (0, 24, 17, 0, 0, 0, 4, 0, 24, 0, 0, 0)
s = 174: (0, 18, 22, 0, 0, 0, 6, 0, 39, 0, 0, 0)
s = 175: (0, 25, 27, 0, 0, 0, 4, 0, 31, 0, 0, 0)
s = 176: (0, 24, 20, 0, 0, 0, 6, 0, 38, 0, 0, 0)
s = 177: (0, 45, 18, 0, 0, 0, 3, 0, 25, 0, 0, 0)
s = 178: (0, 19, 45, 0, 0, 0, 4, 0, 36, 0, 0, 0)
s = 179: (0, 33, 21, 0, 0, 0, 3, 0, 42, 0, 0, 0)
s = 180: (0, 19, 39, 0, 0, 0, 4, 0, 37, 0, 0, 0)
s = 181: (0, 25, 23, 0, 0, 0, 4, 0, 22, 0, 0, 0)
s = 182: (0, 29, 38, 0, 0, 0, 5, 0, 24, 0, 0, 0)
s = 183: (0, 23, 27, 0, 0, 0, 4, 0, 35, 0, 0, 0)
s = 184: (0, 26, 28, 0, 0, 0, 3, 0, 34, 0, 0, 0)
s = 185: (0, 32, 26, 0, 0, 0, 7, 0, 39, 0, 0, 0)
s = 186: (0, 17, 24, 0, 0, 0, 4, 0, 22, 0, 0, 0)
s = 187: (0, 23, 18, 0, 0, 0, 4, 0, 32, 0, 0, 0)
s = 188: (0, 28, 25, 0, 0, 0, 5, 0, 31, 0, 0, 0)
s = 189: (0, 26, 23, 0, 0, 0, 4, 0, 46, 0, 0, 0)
s = 190: (0, 30, 15, 0, 0, 0, 4, 0, 49, 0, 0, 0)
s = 191: (0, 32, 27, 0, 0, 0, 5, 0, 40, 0, 0, 0)
s = 192: (0, 14, 19, 0, 0, 0, 3, 0, 30, 0, 0, 0)
s = 193: (0, 29, 24, 0, 0, 0, 3, 0, 33, 0, 0, 0)
s = 194: (0, 37, 21, 0, 0, 0, 3, 0, 25, 0, 0, 0)
s = 195: (0, 33, 27, 0, 0, 0, 3, 0, 25, 0, 0, 0)
s = 196: (0, 31, 19, 0, 0, 0, 4, 0, 23, 0, 0, 0)
s = 197: (0, 30, 34, 0, 0, 0, 4, 0, 24, 0, 0, 0)
s = 198: (0, 34, 22, 0, 0, 0, 5, 0, 24, 0, 0, 0)
s = 199: (0, 36, 24, 0, 0, 0, 4, 0, 45, 0, 0, 0)
s = 200: (0, 19, 20, 0, 0, 0, 5, 0, 28, 0, 0, 0)
------------------------------------------------------------------------
RESOURCE k = 3
s = 1: (0, 0, 0, 20, 15, 18, 0, 26, 0, 48, 25, 0)
s = 2: (0, 0, 0, 17, 28, 17, 0, 19, 0, 69, 20, 0)
s = 3: (0, 0, 0, 15, 22, 15, 0, 34, 0, 54, 39, 0)
s = 4: (0, 0, 0, 20, 22, 18, 0, 26, 0, 51, 52, 0)
s = 5: (0, 0, 0, 24, 19, 21, 0, 24, 0, 34, 31, 0)
s = 6: (0, 0, 0, 12, 23, 13, 0, 17, 0, 45, 50, 0)
s = 7: (0, 0, 0, 14, 16, 18, 0, 14, 0, 26, 25, 0)
s = 8: (0, 0, 0, 21, 29, 17, 0, 14, 0, 68, 30, 0)
s = 9: (0, 0, 0, 23, 28, 16, 0, 21, 0, 46, 27, 0)
s = 10: (0, 0, 0, 29, 20, 13, 0, 22, 0, 67, 23, 0)
s = 11: (0, 0, 0, 18, 18, 18, 0, 21, 0, 34, 19, 0)
s = 12: (0, 0, 0, 25, 21, 19, 0, 28, 0, 30, 33, 0)
s = 13: (0, 0, 0, 30, 17, 17, 0, 19, 0, 25, 32, 0)
s = 14: (0, 0, 0, 22, 31, 13, 0, 17, 0, 30, 27, 0)
s = 15: (0, 0, 0, 14, 28, 15, 0, 29, 0, 44, 29, 0)
s = 16: (0, 0, 0, 26, 30, 13, 0, 20, 0, 36, 28, 0)
s = 17: (0, 0, 0, 13, 29, 24, 0, 20, 0, 59, 35, 0)
s = 18: (0, 0, 0, 27, 18, 16, 0, 16, 0, 45, 31, 0)
s = 19: (0, 0, 0, 24, 27, 22, 0, 21, 0, 41, 29, 0)
s = 20: (0, 0, 0, 13, 20, 16, 0, 25, 0, 44, 22, 0)
s = 21: (0, 0, 0, 14, 19, 8, 0, 23, 0, 31, 38, 0)
s = 22: (0, 0, 0, 16, 25, 20, 0, 16, 0, 22, 55, 0)
s = 23: (0, 0, 0, 15, 37, 17, 0, 27, 0, 34, 26, 0)
s = 24: (0, 0, 0, 21, 30, 25, 0, 16, 0, 47, 28, 0)
s = 25: (0, 0, 0, 19, 21, 19, 0, 24, 0, 29, 37, 0)
s = 26: (0, 0, 0, 14, 22, 11, 0, 17, 0, 32, 23, 0)
s = 27: (0, 0, 0, 16, 15, 18, 0, 32, 0, 41, 32, 0)
s = 28: (0, 0, 0, 24, 35, 16, 0, 14, 0, 42, 32, 0)
s = 29: (0, 0, 0, 21, 24, 15, 0, 11, 0, 36, 46, 0)
s = 30: (0, 0, 0, 31, 23, 8, 0, 13, 0, 47, 18, 0)
s = 31: (0, 0, 0, 14, 14, 18, 0, 17, 0, 38, 24, 0)
s = 32: (0, 0, 0, 28, 24, 9, 0, 15, 0, 24, 39, 0)
s = 33: (0, 0, 0, 25, 22, 16, 0, 15, 0, 31, 46, 0)
s = 34: (0, 0, 0, 14, 20, 18, 0, 19, 0, 37, 24, 0)
s = 35: (0, 0, 0, 27, 14, 10, 0, 32, 0, 62, 30, 0)
s = 36: (0, 0, 0, 25, 24, 12, 0, 21, 0, 28, 26, 0)
s = 37: (0, 0, 0, 18, 16, 16, 0, 27, 0, 37, 20, 0)
s = 38: (0, 0, 0, 24, 23, 20, 0, 14, 0, 27, 26, 0)
s = 39: (0, 0, 0, 25, 20, 14, 0, 13, 0, 27, 30, 0)
s = 40: (0, 0, 0, 18, 34, 11, 0, 20, 0, 40, 26, 0)
s = 41: (0, 0, 0, 16, 28, 17, 0, 18, 0, 55, 33, 0)
s = 42: (0, 0, 0, 12, 19, 23, 0, 21, 0, 39, 53, 0)
s = 43: (0, 0, 0, 16, 27, 12, 0, 20, 0, 40, 32, 0)
s = 44: (0, 0, 0, 16, 16, 16, 0, 21, 0, 28, 35, 0)
s = 45: (0, 0, 0, 24, 25, 20, 0, 15, 0, 34, 34, 0)
s = 46: (0, 0, 0, 21, 28, 19, 0, 16, 0, 58, 53, 0)
s = 47: (0, 0, 0, 15, 19, 8, 0, 13, 0, 43, 54, 0)
s = 48: (0, 0, 0, 23, 19, 9, 0, 13, 0, 40, 28, 0)
s = 49: (0, 0, 0, 19, 26, 23, 0, 32, 0, 46, 22, 0)
s = 50: (0, 0, 0, 17, 32, 10, 0, 24, 0, 31, 19, 0)
s = 51: (0, 0, 0, 19, 24, 17, 0, 23, 0, 42, 40, 0)
s = 52: (0, 0, 0, 19, 24, 16, 0, 12, 0, 33, 26, 0)
s = 53: (0, 0, 0, 26, 23, 9, 0, 41, 0, 27, 19, 0)
s = 54: (0, 0, 0, 17, 16, 10, 0, 30, 0, 35, 25, 0)
s = 55: (0, 0, 0, 17, 24, 13, 0, 23, 0, 34, 31, 0)
s = 56: (0, 0, 0, 24, 35, 13, 0, 14, 0, 30, 24, 0)
s = 57: (0, 0, 0, 16, 16, 17, 0, 22, 0, 32, 17, 0)
s = 58: (0, 0, 0, 23, 28, 14, 0, 29, 0, 29, 28, 0)
s = 59: (0, 0, 0, 32, 35, 12, 0, 23, 0, 33, 23, 0)
s = 60: (0, 0, 0, 20, 32, 12, 0, 12, 0, 40, 20, 0)
s = 61: (0, 0, 0, 21, 23, 9, 0, 25, 0, 43, 22, 0)
s = 62: (0, 0, 0, 12, 17, 17, 0, 18, 0, 38, 18, 0)
s = 63: (0, 0, 0, 32, 42, 16, 0, 25, 0, 27, 29, 0)
s = 64: (0, 0, 0, 16, 34, 10, 0, 20, 0, 55, 23, 0)
s = 65: (0, 0, 0, 19, 22, 11, 0, 17, 0, 51, 49, 0)
s = 66: (0, 0, 0, 21, 17, 16, 0, 19, 0, 39, 28, 0)
s = 67: (0, 0, 0, 30, 29, 12, 0, 16, 0, 33, 28, 0)
s = 68: (0, 0, 0, 24, 37, 13, 0, 24, 0, 27, 21, 0)
s = 69: (0, 0, 0, 12, 18, 12, 0, 28, 0, 34, 29, 0)
s = 70: (0, 0, 0, 20, 23, 11, 0, 27, 0, 24, 21, 0)
s = 71: (0, 0, 0, 18, 27, 10, 0, 24, 0, 49, 18, 0)
s = 72: (0, 0, 0, 22, 27, 15, 0, 14, 0, 38, 27, 0)
s = 73: (0, 0, 0, 19, 22, 13, 0, 27, 0, 39, 37, 0)
s = 74: (0, 0, 0, 15, 15, 13, 0, 17, 0, 61, 20, 0)
s = 75: (0, 0, 0, 25, 32, 12, 0, 12, 0, 31, 28, 0)
s = 76: (0, 0, 0, 18, 29, 9, 0, 15, 0, 33, 29, 0)
s = 77: (0, 0, 0, 33, 31, 23, 0, 20, 0, 68, 37, 0)
s = 78: (0, 0, 0, 19, 36, 15, 0, 22, 0, 35, 24, 0)
s = 79: (0, 0, 0, 12, 20, 18, 0, 23, 0, 29, 18, 0)
s = 80: (0, 0, 0, 28, 22, 8, 0, 20, 0, 24, 26, 0)
s = 81: (0, 0, 0, 29, 36, 9, 0, 16, 0, 44, 23, 0)
s = 82: (0, 0, 0, 17, 23, 17, 0, 27, 0, 31, 25, 0)
s = 83: (0, 0, 0, 36, 31, 14, 0, 30, 0, 57, 43, 0)
s = 84: (0, 0, 0, 13, 33, 13, 0, 16, 0, 49, 28, 0)
s = 85: (0, 0, 0, 14, 29, 13, 0, 12, 0, 55, 30, 0)
s = 86: (0, 0, 0, 15, 23, 16, 0, 19, 0, 32, 30, 0)
s = 87: (0, 0, 0, 20, 26, 14, 0, 20, 0, 28, 43, 0)
s = 88: (0, 0, 0, 25, 29, 18, 0, 16, 0, 32, 29, 0)
s = 89: (0, 0, 0, 13, 26, 13, 0, 16, 0, 61, 25, 0)
s = 90: (0, 0, 0, 23, 24, 11, 0, 16, 0, 55, 21, 0)
s = 91: (0, 0, 0, 16, 32, 11, 0, 15, 0, 41, 22, 0)
s = 92: (0, 0, 0, 18, 23, 10, 0, 22, 0, 34, 39, 0)
s = 93: (0, 0, 0, 19, 18, 19, 0, 17, 0, 46, 27, 0)
s = 94: (0, 0, 0, 16, 29, 14, 0, 13, 0, 54, 32, 0)
s = 95: (0, 0, 0, 26, 13, 15, 0, 20, 0, 32, 37, 0)
s = 96: (0, 0, 0, 28, 29, 12, 0, 15, 0, 28, 23, 0)
s = 97: (0, 0, 0, 12, 21, 29, 0, 11, 0, 35, 36, 0)
s = 98: (0, 0, 0, 25, 20, 13, 0, 24, 0, 49, 23, 0)
s = 99: (0, 0, 0, 16, 19, 17, 0, 30, 0, 28, 31, 0)
s = 100: (0, 0, 0, 28, 21, 15, 0, 27, 0, 47, 26, 0)
s = 101: (0, 0, 0, 14, 23, 13, 0, 18, 0, 35, 26, 0)
s = 102: (0, 0, 0, 17, 28, 16, 0, 17, 0, 31, 39, 0)
s = 103: (0, 0, 0, 12, 21, 13, 0, 14, 0, 43, 36, 0)
s = 104: (0, 0, 0, 25, 30, 18, 0, 20, 0, 41, 20, 0)
s = 105: (0, 0, 0, 25, 30, 16, 0, 19, 0, 54, 19, 0)
s = 106: (0, 0, 0, 20, 30, 11, 0, 21, 0, 29, 23, 0)
s = 107: (0, 0, 0, 12, 33, 14, 0, 17, 0, 45, 19, 0)
s = 108: (0, 0, 0, 12, 20, 15, 0, 17, 0, 60, 34, 0)
s = 109: (0, 0, 0, 24, 25, 15, 0, 22, 0, 35, 44, 0)
s = 110: (0, 0, 0, 15, 22, 12, 0, 15, 0, 40, 26, 0)
s = 111: (0, 0, 0, 24, 21, 18, 0, 21, 0, 30, 29, 0)
s = 112: (0, 0, 0, 15, 17, 18, 0, 17, 0, 46, 30, 0)
s = 113: (0, 0, 0, 22, 31, 9, 0, 17, 0, 30, 24, 0)
s = 114: (0, 0, 0, 22, 18, 13, 0, 11, 0, 31, 26, 0)
s = 115: (0, 0, 0, 27, 40, 23, 0, 20, 0, 30, 29, 0)
s = 116: (0, 0, 0, 23, 21, 20, 0, 25, 0, 32, 24, 0)
s = 117: (0, 0, 0, 14, 40, 18, 0, 13, 0, 42, 42, 0)
s = 118: (0, 0, 0, 20, 28, 16, 0, 25, 0, 49, 45, 0)
s = 119: (0, 0, 0, 16, 23, 19, 0, 24, 0, 32, 25, 0)
s = 120: (0, 0, 0, 20, 34, 19, 0, 21, 0, 73, 55, 0)
s = 121: (0, 0, 0, 15, 15, 9, 0, 30, 0, 47, 52, 0)
s = 122: (0, 0, 0, 23, 31, 9, 0, 21, 0, 38, 27, 0)
s = 123: (0, 0, 0, 24, 30, 12, 0, 27, 0, 29, 28, 0)
s = 124: (0, 0, 0, 19, 22, 16, 0, 30, 0, 40, 22, 0)
s = 125: (0, 0, 0, 13, 17, 14, 0, 12, 0, 47, 30, 0)
s = 126: (0, 0, 0, 24, 21, 9, 0, 21, 0, 32, 25, 0)
s = 127: (0, 0, 0, 25, 29, 10, 0, 14, 0, 45, 24, 0)
s = 128: (0, 0, 0, 33, 17, 24, 0, 22, 0, 49, 35, 0)
s = 129: (0, 0, 0, 27, 23, 12, 0, 22, 0, 40, 24, 0)
s = 130: (0, 0, 0, 23, 32, 13, 0, 22, 0, 37, 34, 0)
s = 131: (0, 0, 0, 11, 25, 15, 0, 29, 0, 43, 31, 0)
s = 132: (0, 0, 0, 28, 24, 16, 0, 16, 0, 49, 34, 0)
s = 133: (0, 0, 0, 14, 47, 16, 0, 16, 0, 43, 19, 0)
s = 134: (0, 0, 0, 33, 15, 21, 0, 21, 0, 26, 26, 0)
s = 135: (0, 0, 0, 19, 39, 21, 0, 26, 0, 38, 22, 0)
s = 136: (0, 0, 0, 12, 36, 10, 0, 17, 0, 51, 26, 0)
s = 137: (0, 0, 0, 20, 35, 18, 0, 37, 0, 69, 32, 0)
s = 138: (0, 0, 0, 14, 19, 12, 0, 33, 0, 48, 26, 0)
s = 139: (0, 0, 0, 16, 19, 10, 0, 25, 0, 56, 51, 0)
s = 140: (0, 0, 0, 13, 26, 9, 0, 13, 0, 24, 31, 0)
s = 141: (0, 0, 0, 14, 17, 11, 0, 18, 0, 31, 25, 0)
s = 142: (0, 0, 0, 20, 18, 14, 0, 28, 0, 47, 27, 0)
s = 143: (0, 0, 0, 23, 31, 21, 0, 16, 0, 28, 34, 0)
s = 144: (0, 0, 0, 18, 16, 14, 0, 25, 0, 52, 30, 0)
s = 145: (0, 0, 0, 19, 32, 16, 0, 24, 0, 34, 29, 0)
s = 146: (0, 0, 0, 12, 13, 11, 0, 17, 0, 41, 26, 0)
s = 147: (0, 0, 0, 21, 23, 9, 0, 13, 0, 39, 27, 0)
s = 148: (0, 0, 0, 22, 16, 13, 0, 13, 0, 28, 21, 0)
s = 149: (0, 0, 0, 20, 23, 15, 0, 22, 0, 40, 33, 0)
s = 150: (0, 0, 0, 18, 26, 14, 0, 23, 0, 49, 34, 0)
s = 151: (0, 0, 0, 12, 21, 9, 0, 15, 0, 49, 47, 0)
s = 152: (0, 0, 0, 25, 25, 23, 0, 14, 0, 36, 27, 0)
s = 153: (0, 0, 0, 30, 19, 13, 0, 21, 0, 29, 30, 0)
s = 154: (0, 0, 0, 20, 15, 15, 0, 16, 0, 31, 45, 0)
s = 155: (0, 0, 0, 21, 19, 18, 0, 14, 0, 48, 24, 0)
s = 156: (0, 0, 0, 15, 27, 9, 0, 20, 0, 39, 22, 0)
s = 157: (0, 0, 0, 25, 27, 23, 0, 21, 0, 42, 24, 0)
s = 158: (0, 0, 0, 25, 30, 16, 0, 28, 0, 35, 46, 0)
s = 159: (0, 0, 0, 12, 21, 14, 0, 25, 0, 36, 19, 0)
s = 160: (0, 0, 0, 24, 25, 13, 0, 15, 0, 55, 38, 0)
s = 161: (0, 0, 0, 12, 29, 20, 0, 22, 0, 25, 25, 0)
s = 162: (0, 0, 0, 13, 42, 22, 0, 14, 0, 25, 27, 0)
s = 163: (0, 0, 0, 14, 15, 14, 0, 29, 0, 41, 45, 0)
s = 164: (0, 0, 0, 28, 17, 16, 0, 25, 0, 24, 34, 0)
s = 165: (0, 0, 0, 20, 30, 15, 0, 12, 0, 28, 42, 0)
s = 166: (0, 0, 0, 18, 18, 16, 0, 22, 0, 32, 43, 0)
s = 167: (0, 0, 0, 14, 28, 11, 0, 26, 0, 44, 49, 0)
s = 168: (0, 0, 0, 25, 15, 15, 0, 19, 0, 25, 34, 0)
s = 169: (0, 0, 0, 25, 19, 17, 0, 31, 0, 31, 40, 0)
s = 170: (0, 0, 0, 27, 36, 14, 0, 21, 0, 36, 32, 0)
s = 171: (0, 0, 0, 13, 41, 15, 0, 17, 0, 30, 25, 0)
s = 172: (0, 0, 0, 36, 35, 13, 0, 24, 0, 47, 45, 0)
s = 173: (0, 0, 0, 17, 25, 20, 0, 17, 0, 58, 40, 0)
s = 174: (0, 0, 0, 16, 22, 14, 0, 30, 0, 64, 44, 0)
s = 175: (0, 0, 0, 12, 24, 16, 0, 16, 0, 47, 21, 0)
s = 176: (0, 0, 0, 16, 22, 14, 0, 14, 0, 34, 39, 0)
s = 177: (0, 0, 0, 18, 27, 20, 0, 23, 0, 23, 34, 0)
s = 178: (0, 0, 0, 26, 19, 17, 0, 22, 0, 37, 22, 0)
s = 179: (0, 0, 0, 24, 20, 16, 0, 17, 0, 30, 23, 0)
s = 180: (0, 0, 0, 15, 24, 12, 0, 35, 0, 74, 29, 0)
s = 181: (0, 0, 0, 18, 31, 18, 0, 13, 0, 56, 20, 0)
s = 182: (0, 0, 0, 14, 27, 10, 0, 20, 0, 48, 44, 0)
s = 183: (0, 0, 0, 15, 30, 12, 0, 21, 0, 62, 37, 0)
s = 184: (0, 0, 0, 18, 30, 15, 0, 19, 0, 49, 38, 0)
s = 185: (0, 0, 0, 26, 29, 10, 0, 17, 0, 51, 40, 0)
s = 186: (0, 0, 0, 20, 34, 14, 0, 21, 0, 28, 39, 0)
s = 187: (0, 0, 0, 18, 19, 16, 0, 16, 0, 52, 23, 0)
s = 188: (0, 0, 0, 16, 25, 8, 0, 12, 0, 37, 21, 0)
s = 189: (0, 0, 0, 29, 16, 13, 0, 19, 0, 53, 43, 0)
s = 190: (0, 0, 0, 33, 17, 14, 0, 23, 0, 30, 35, 0)
s = 191: (0, 0, 0, 14, 29, 13, 0, 21, 0, 35, 29, 0)
s = 192: (0, 0, 0, 22, 18, 11, 0, 25, 0, 30, 37, 0)
s = 193: (0, 0, 0, 17, 23, 19, 0, 24, 0, 53, 37, 0)
s = 194: (0, 0, 0, 17, 25, 9, 0, 21, 0, 62, 36, 0)
s = 195: (0, 0, 0, 16, 24, 15, 0, 13, 0, 25, 27, 0)
s = 196: (0, 0, 0, 17, 37, 9, 0, 17, 0, 61, 26, 0)
s = 197: (0, 0, 0, 13, 26, 19, 0, 17, 0, 29, 37, 0)
s = 198: (0, 0, 0, 20, 27, 16, 0, 21, 0, 33, 22, 0)
s = 199: (0, 0, 0, 18, 30, 14, 0, 16, 0, 35, 43, 0)
s = 200: (0, 0, 0, 22, 20, 14, 0, 24, 0, 25, 30, 0)
************************************************************************
ES/LS-VALUES:
jobnr.   ES(i)    LS(i)
------------------------------------------------------------------------
  0        0        0
  1        0       47
  2        0       38
  3        0       39
  4        9       48
  5        9       65
  6       17       56
  7       20       60
  8       30       71
  9       17       70
 10        9       74
 11       39       80
************************************************************************
BIG-M-VALUES:
M1 = 53, M2 = 187
************************************************************************
